20
0 1 0.8 0.2
0 2 0.54 0.33
0 3 0.7 0.39
0 4 0.78 0.29
0 5 0.71 0.34
0 6 0.64 0.3
0 7 0.66 0.18
0 8 0.6 0.37
0 9 0.6 0.43
0 10 0.42 0.38
0 11 0.46 0.31
0 12 0.68 0.31
0 13 0.89 0.38
0 14 0.83 0.4
0 15 0.3 0.26
0 16 0.6 0.26
0 17 0.69 0.08
0 18 0.76 0.46
0 19 0.8 0.17
1 2 0.5 0.27
1 3 0.76 0.27
1 4 0.35 0.09
1 5 0.54 0.14
1 6 0.45 0.35
1 7 0.58 0.32
1 8 0.46 0.3
1 9 0.7 0.23
1 10 0.65 0.22
1 11 0.71 0.33
1 12 0.55 0.28
1 13 0.69 0.42
1 14 0.75 0.21
1 15 0.66 0.22
1 16 0.22 0.06
1 17 0.69 0.12
1 18 0.72 0.28
1 19 0.54 0.11
2 3 0.42 0.24
2 4 0.66 0.3
2 5 0.64 0.38
2 6 0.55 0.28
2 7 0.79 0.47
2 8 0.28 0.2
2 9 0.46 0.27
2 10 0.6 0.38
2 11 0.61 0.35
2 12 0.42 0.26
2 13 0.54 0.4
2 14 0.47 0.29
2 15 0.52 0.32
2 16 0.72 0.33
2 17 0.82 0.25
2 18 0.54 0.42
2 19 0.64 0.16
3 4 0.76 0.29
3 5 0.26 0.14
3 6 0.32 0.09
3 7 0.42 0.32
3 8 0.54 0.17
3 9 0.46 0.18
3 10 0.58 0.14
3 11 0.86 0.25
3 12 0.42 0.42
3 13 0.62 0.21
3 14 0.4 0.26
3 15 0.72 0.37
3 16 0.58 0.21
3 17 0.63 0.39
3 18 0.66 0.39
3 19 0.74 0.33
4 5 0.71 0.16
4 6 0.44 0.26
4 7 0.56 0.34
4 8 0.64 0.21
4 9 0.64 0.25
4 10 0.46 0.24
4 11 0.67 0.27
4 12 0.56 0.31
4 13 0.62 0.34
4 14 0.4 0.12
4 15 0.86 0.24
4 16 0.57 0.08
4 17 0.34 0.21
4 18 0.57 0.3
4 19 0.28 0.14
5 6 0.58 0.23
5 7 0.56 0.18
5 8 0.36 0.23
5 9 0.51 0.24
5 10 0.33 0.08
5 11 0.65 0.19
5 12 0.67 0.3
5 13 0.48 0.28
5 14 0.6 0.28
5 15 0.74 0.24
5 16 0.32 0.08
5 17 0.37 0.26
5 18 0.62 0.3
5 19 0.64 0.24
6 7 0.74 0.39
6 8 0.48 0.08
6 9 0.6 0.27
6 10 0.52 0.23
6 11 0.64 0.32
6 12 0.54 0.35
6 13 0.3 0.12
6 14 0.72 0.17
6 15 0.5 0.35
6 16 0.56 0.3
6 17 0.78 0.33
6 18 0.38 0.3
6 19 0.48 0.24
7 8 0.63 0.31
7 9 0.48 0.39
7 10 0.52 0.24
7 11 0.82 0.13
7 12 0.58 0.21
7 13 0.62 0.44
7 14 0.48 0.22
7 15 0.81 0.35
7 16 0.56 0.26
7 17 0.76 0.26
7 18 0.37 0.28
7 19 0.81 0.35
8 9 0.7 0.28
8 10 0.52 0.26
8 11 0.75 0.24
8 12 0.64 0.37
8 13 0.5 0.2
8 14 0.64 0.09
8 15 0.64 0.27
8 16 0.68 0.29
8 17 0.59 0.29
8 18 0.26 0.22
8 19 0.36 0.2
9 10 0.18 0.16
9 11 0.5 0.27
9 12 0.7 0.44
9 13 0.34 0.34
9 14 0.62 0.28
9 15 0.65 0.33
9 16 0.48 0.17
9 17 0.51 0.35
9 18 0.76 0.22
9 19 0.6 0.34
10 11 0.32 0.11
10 12 0.57 0.38
10 13 0.52 0.35
10 14 0.52 0.26
10 15 0.47 0.26
10 16 0.65 0.16
10 17 0.33 0.3
10 18 0.58 0.38
10 19 0.48 0.32
11 12 0.7 0.34
11 13 0.76 0.43
11 14 0.68 0.15
11 15 0.51 0.22
11 16 0.6 0.27
11 17 0.65 0.39
11 18 0.56 0.41
11 19 0.39 0.38
12 13 0.52 0.23
12 14 0.56 0.38
12 15 0.38 0.2
12 16 0.35 0.27
12 17 0.6 0.26
12 18 0.68 0.28
12 19 0.32 0.17
13 14 0.54 0.28
13 15 0.7 0.34
13 16 0.47 0.36
13 17 0.85 0.3
13 18 0.64 0.42
13 19 0.6 0.33
14 15 0.62 0.18
14 16 0.62 0.2
14 17 0.58 0.33
14 18 0.56 0.31
14 19 0.68 0.26
15 16 0.44 0.16
15 17 0.8 0.34
15 18 0.54 0.22
15 19 0.58 0.28
16 17 0.69 0.18
16 18 0.5 0.22
16 19 0.67 0.17
17 18 0.79 0.4
17 19 0.62 0.09
18 19 0.62 0.39
